d5520fe774924cbaae13733349cab993-pulp.mps
*SENSE:Minimize
NAME          MODEL
ROWS
 N  OBJ
 L  C0000000
 G  C0000001
COLUMNS
    MARK      'MARKER'                 'INTORG'
    X0000000  OBJ       -1.719235936296e+01
    MARK      'MARKER'                 'INTEND'
    MARK      'MARKER'                 'INTORG'
    X0000001  OBJ        9.119101592594e+00
    MARK      'MARKER'                 'INTEND'
    MARK      'MARKER'                 'INTORG'
    X0000002  OBJ        5.611460955557e+00
    MARK      'MARKER'                 'INTEND'
    X0000003  C0000000  -1.666666666667e-03
    X0000003  C0000001  -1.666666666667e-03
    X0000003  OBJ       -8.000000000000e+00
RHS
    RHS       C0000000   8.000000000000e-01
    RHS       C0000001   0.000000000000e+00
BOUNDS
 BV BND       X0000000
 BV BND       X0000001
 BV BND       X0000002
 LO BND       X0000003  -6.000000000000e+00
 UP BND       X0000003   6.000000000000e+00
ENDATA
