d5520fe774924cbaae13733349cab993-pulp.sol
Optimal - objective value -17.19235936
      0 C0000000               0                       0
      1 C0000001               0                    4800
      0 X0000000               1              -17.192359
      1 X0000001               0               9.1191016
      2 X0000002               0                5.611461
      3 X0000003               0                       0
